Generated by cif2cell 2.1.0 from ICSD re
   1.00000000000000     
     0.0000000000000000    2.8008769528804227    2.8008769528804227
     2.8008769528804227    0.0000000000000000    2.8008769528804227
     2.8008769528804227    2.8008769528804227    0.0000000000000000
   Na   Cl
     1     1
Direct
 -0.0000000000000000 -0.0000000000000000  0.0000000000000000
  0.5000000000000000  0.5000000000000000  0.5000000000000000
 
  0.00000000E+00  0.00000000E+00  0.00000000E+00
  0.00000000E+00  0.00000000E+00  0.00000000E+00
