generated by phonopy
   1.0
     0.0000000000000000   19.6061386701629594   19.6061386701629594
    19.6061386701629594    0.0000000000000000   19.6061386701629594
    19.6061386701629594   19.6061386701629594    0.0000000000000000
Na Cl
 343  343
Direct
  0.0000000000000000  0.0000000000000000  0.0000000000000000
  0.1428571428571428  0.0000000000000000  0.0000000000000000
  0.2857142857142857  0.0000000000000000  0.0000000000000000
  0.4285714285714285  0.0000000000000000  0.0000000000000000
  0.5714285714285714  0.0000000000000000  0.0000000000000000
  0.7142857142857142  0.0000000000000000  0.0000000000000000
  0.8571428571428571  0.0000000000000000  0.0000000000000000
  0.0000000000000000  0.1428571428571428  0.0000000000000000
  0.1428571428571428  0.1428571428571428  0.0000000000000000
  0.2857142857142857  0.1428571428571428  0.0000000000000000
  0.4285714285714285  0.1428571428571428  0.0000000000000000
  0.5714285714285714  0.1428571428571428  0.0000000000000000
  0.7142857142857142  0.1428571428571428  0.0000000000000000
  0.8571428571428571  0.1428571428571428  0.0000000000000000
  0.0000000000000000  0.2857142857142857  0.0000000000000000
  0.1428571428571428  0.2857142857142857  0.0000000000000000
  0.2857142857142857  0.2857142857142857  0.0000000000000000
  0.4285714285714285  0.2857142857142857  0.0000000000000000
  0.5714285714285714  0.2857142857142857  0.0000000000000000
  0.7142857142857142  0.2857142857142857  0.0000000000000000
  0.8571428571428571  0.2857142857142857  0.0000000000000000
  0.0000000000000000  0.4285714285714285  0.0000000000000000
  0.1428571428571428  0.4285714285714285  0.0000000000000000
  0.2857142857142857  0.4285714285714285  0.0000000000000000
  0.4285714285714285  0.4285714285714285  0.0000000000000000
  0.5714285714285714  0.4285714285714285  0.0000000000000000
  0.7142857142857142  0.4285714285714285  0.0000000000000000
  0.8571428571428571  0.4285714285714285  0.0000000000000000
  0.0000000000000000  0.5714285714285714  0.0000000000000000
  0.1428571428571428  0.5714285714285714  0.0000000000000000
  0.2857142857142857  0.5714285714285714  0.0000000000000000
  0.4285714285714285  0.5714285714285714  0.0000000000000000
  0.5714285714285714  0.5714285714285714  0.0000000000000000
  0.7142857142857142  0.5714285714285714  0.0000000000000000
  0.8571428571428571  0.5714285714285714  0.0000000000000000
  0.0000000000000000  0.7142857142857142  0.0000000000000000
  0.1428571428571428  0.7142857142857142  0.0000000000000000
  0.2857142857142857  0.7142857142857142  0.0000000000000000
  0.4285714285714285  0.7142857142857142  0.0000000000000000
  0.5714285714285714  0.7142857142857142  0.0000000000000000
  0.7142857142857142  0.7142857142857142  0.0000000000000000
  0.8571428571428571  0.7142857142857142  0.0000000000000000
  0.0000000000000000  0.8571428571428571  0.0000000000000000
  0.1428571428571428  0.8571428571428571  0.0000000000000000
  0.2857142857142857  0.8571428571428571  0.0000000000000000
  0.4285714285714285  0.8571428571428571  0.0000000000000000
  0.5714285714285714  0.8571428571428571  0.0000000000000000
  0.7142857142857142  0.8571428571428571  0.0000000000000000
  0.8571428571428571  0.8571428571428571  0.0000000000000000
  0.0000000000000000  0.0000000000000000  0.1428571428571428
  0.1428571428571428  0.0000000000000000  0.1428571428571428
  0.2857142857142857  0.0000000000000000  0.1428571428571428
  0.4285714285714285  0.0000000000000000  0.1428571428571428
  0.5714285714285714  0.0000000000000000  0.1428571428571428
  0.7142857142857142  0.0000000000000000  0.1428571428571428
  0.8571428571428571  0.0000000000000000  0.1428571428571428
  0.0000000000000000  0.1428571428571428  0.1428571428571428
  0.1428571428571428  0.1428571428571428  0.1428571428571428
  0.2857142857142857  0.1428571428571428  0.1428571428571428
  0.4285714285714285  0.1428571428571428  0.1428571428571428
  0.5714285714285714  0.1428571428571428  0.1428571428571428
  0.7142857142857142  0.1428571428571428  0.1428571428571428
  0.8571428571428571  0.1428571428571428  0.1428571428571428
  0.0000000000000000  0.2857142857142857  0.1428571428571428
  0.1428571428571428  0.2857142857142857  0.1428571428571428
  0.2857142857142857  0.2857142857142857  0.1428571428571428
  0.4285714285714285  0.2857142857142857  0.1428571428571428
  0.5714285714285714  0.2857142857142857  0.1428571428571428
  0.7142857142857142  0.2857142857142857  0.1428571428571428
  0.8571428571428571  0.2857142857142857  0.1428571428571428
  0.0000000000000000  0.4285714285714285  0.1428571428571428
  0.1428571428571428  0.4285714285714285  0.1428571428571428
  0.2857142857142857  0.4285714285714285  0.1428571428571428
  0.4285714285714285  0.4285714285714285  0.1428571428571428
  0.5714285714285714  0.4285714285714285  0.1428571428571428
  0.7142857142857142  0.4285714285714285  0.1428571428571428
  0.8571428571428571  0.4285714285714285  0.1428571428571428
  0.0000000000000000  0.5714285714285714  0.1428571428571428
  0.1428571428571428  0.5714285714285714  0.1428571428571428
  0.2857142857142857  0.5714285714285714  0.1428571428571428
  0.4285714285714285  0.5714285714285714  0.1428571428571428
  0.5714285714285714  0.5714285714285714  0.1428571428571428
  0.7142857142857142  0.5714285714285714  0.1428571428571428
  0.8571428571428571  0.5714285714285714  0.1428571428571428
  0.0000000000000000  0.7142857142857142  0.1428571428571428
  0.1428571428571428  0.7142857142857142  0.1428571428571428
  0.2857142857142857  0.7142857142857142  0.1428571428571428
  0.4285714285714285  0.7142857142857142  0.1428571428571428
  0.5714285714285714  0.7142857142857142  0.1428571428571428
  0.7142857142857142  0.7142857142857142  0.1428571428571428
  0.8571428571428571  0.7142857142857142  0.1428571428571428
  0.0000000000000000  0.8571428571428571  0.1428571428571428
  0.1428571428571428  0.8571428571428571  0.1428571428571428
  0.2857142857142857  0.8571428571428571  0.1428571428571428
  0.4285714285714285  0.8571428571428571  0.1428571428571428
  0.5714285714285714  0.8571428571428571  0.1428571428571428
  0.7142857142857142  0.8571428571428571  0.1428571428571428
  0.8571428571428571  0.8571428571428571  0.1428571428571428
  0.0000000000000000  0.0000000000000000  0.2857142857142857
  0.1428571428571428  0.0000000000000000  0.2857142857142857
  0.2857142857142857  0.0000000000000000  0.2857142857142857
  0.4285714285714285  0.0000000000000000  0.2857142857142857
  0.5714285714285714  0.0000000000000000  0.2857142857142857
  0.7142857142857142  0.0000000000000000  0.2857142857142857
  0.8571428571428571  0.0000000000000000  0.2857142857142857
  0.0000000000000000  0.1428571428571428  0.2857142857142857
  0.1428571428571428  0.1428571428571428  0.2857142857142857
  0.2857142857142857  0.1428571428571428  0.2857142857142857
  0.4285714285714285  0.1428571428571428  0.2857142857142857
  0.5714285714285714  0.1428571428571428  0.2857142857142857
  0.7142857142857142  0.1428571428571428  0.2857142857142857
  0.8571428571428571  0.1428571428571428  0.2857142857142857
  0.0000000000000000  0.2857142857142857  0.2857142857142857
  0.1428571428571428  0.2857142857142857  0.2857142857142857
  0.2857142857142857  0.2857142857142857  0.2857142857142857
  0.4285714285714285  0.2857142857142857  0.2857142857142857
  0.5714285714285714  0.2857142857142857  0.2857142857142857
  0.7142857142857142  0.2857142857142857  0.2857142857142857
  0.8571428571428571  0.2857142857142857  0.2857142857142857
  0.0000000000000000  0.4285714285714285  0.2857142857142857
  0.1428571428571428  0.4285714285714285  0.2857142857142857
  0.2857142857142857  0.4285714285714285  0.2857142857142857
  0.4285714285714285  0.4285714285714285  0.2857142857142857
  0.5714285714285714  0.4285714285714285  0.2857142857142857
  0.7142857142857142  0.4285714285714285  0.2857142857142857
  0.8571428571428571  0.4285714285714285  0.2857142857142857
  0.0000000000000000  0.5714285714285714  0.2857142857142857
  0.1428571428571428  0.5714285714285714  0.2857142857142857
  0.2857142857142857  0.5714285714285714  0.2857142857142857
  0.4285714285714285  0.5714285714285714  0.2857142857142857
  0.5714285714285714  0.5714285714285714  0.2857142857142857
  0.7142857142857142  0.5714285714285714  0.2857142857142857
  0.8571428571428571  0.5714285714285714  0.2857142857142857
  0.0000000000000000  0.7142857142857142  0.2857142857142857
  0.1428571428571428  0.7142857142857142  0.2857142857142857
  0.2857142857142857  0.7142857142857142  0.2857142857142857
  0.4285714285714285  0.7142857142857142  0.2857142857142857
  0.5714285714285714  0.7142857142857142  0.2857142857142857
  0.7142857142857142  0.7142857142857142  0.2857142857142857
  0.8571428571428571  0.7142857142857142  0.2857142857142857
  0.0000000000000000  0.8571428571428571  0.2857142857142857
  0.1428571428571428  0.8571428571428571  0.2857142857142857
  0.2857142857142857  0.8571428571428571  0.2857142857142857
  0.4285714285714285  0.8571428571428571  0.2857142857142857
  0.5714285714285714  0.8571428571428571  0.2857142857142857
  0.7142857142857142  0.8571428571428571  0.2857142857142857
  0.8571428571428571  0.8571428571428571  0.2857142857142857
  0.0000000000000000  0.0000000000000000  0.4285714285714285
  0.1428571428571428  0.0000000000000000  0.4285714285714285
  0.2857142857142857  0.0000000000000000  0.4285714285714285
  0.4285714285714285  0.0000000000000000  0.4285714285714285
  0.5714285714285714  0.0000000000000000  0.4285714285714285
  0.7142857142857142  0.0000000000000000  0.4285714285714285
  0.8571428571428571  0.0000000000000000  0.4285714285714285
  0.0000000000000000  0.1428571428571428  0.4285714285714285
  0.1428571428571428  0.1428571428571428  0.4285714285714285
  0.2857142857142857  0.1428571428571428  0.4285714285714285
  0.4285714285714285  0.1428571428571428  0.4285714285714285
  0.5714285714285714  0.1428571428571428  0.4285714285714285
  0.7142857142857142  0.1428571428571428  0.4285714285714285
  0.8571428571428571  0.1428571428571428  0.4285714285714285
  0.0000000000000000  0.2857142857142857  0.4285714285714285
  0.1428571428571428  0.2857142857142857  0.4285714285714285
  0.2857142857142857  0.2857142857142857  0.4285714285714285
  0.4285714285714285  0.2857142857142857  0.4285714285714285
  0.5714285714285714  0.2857142857142857  0.4285714285714285
  0.7142857142857142  0.2857142857142857  0.4285714285714285
  0.8571428571428571  0.2857142857142857  0.4285714285714285
  0.0000000000000000  0.4285714285714285  0.4285714285714285
  0.1428571428571428  0.4285714285714285  0.4285714285714285
  0.2857142857142857  0.4285714285714285  0.4285714285714285
  0.4285714285714285  0.4285714285714285  0.4285714285714285
  0.5714285714285714  0.4285714285714285  0.4285714285714285
  0.7142857142857142  0.4285714285714285  0.4285714285714285
  0.8571428571428571  0.4285714285714285  0.4285714285714285
  0.0000000000000000  0.5714285714285714  0.4285714285714285
  0.1428571428571428  0.5714285714285714  0.4285714285714285
  0.2857142857142857  0.5714285714285714  0.4285714285714285
  0.4285714285714285  0.5714285714285714  0.4285714285714285
  0.5714285714285714  0.5714285714285714  0.4285714285714285
  0.7142857142857142  0.5714285714285714  0.4285714285714285
  0.8571428571428571  0.5714285714285714  0.4285714285714285
  0.0000000000000000  0.7142857142857142  0.4285714285714285
  0.1428571428571428  0.7142857142857142  0.4285714285714285
  0.2857142857142857  0.7142857142857142  0.4285714285714285
  0.4285714285714285  0.7142857142857142  0.4285714285714285
  0.5714285714285714  0.7142857142857142  0.4285714285714285
  0.7142857142857142  0.7142857142857142  0.4285714285714285
  0.8571428571428571  0.7142857142857142  0.4285714285714285
  0.0000000000000000  0.8571428571428571  0.4285714285714285
  0.1428571428571428  0.8571428571428571  0.4285714285714285
  0.2857142857142857  0.8571428571428571  0.4285714285714285
  0.4285714285714285  0.8571428571428571  0.4285714285714285
  0.5714285714285714  0.8571428571428571  0.4285714285714285
  0.7142857142857142  0.8571428571428571  0.4285714285714285
  0.8571428571428571  0.8571428571428571  0.4285714285714285
  0.0000000000000000  0.0000000000000000  0.5714285714285714
  0.1428571428571428  0.0000000000000000  0.5714285714285714
  0.2857142857142857  0.0000000000000000  0.5714285714285714
  0.4285714285714285  0.0000000000000000  0.5714285714285714
  0.5714285714285714  0.0000000000000000  0.5714285714285714
  0.7142857142857142  0.0000000000000000  0.5714285714285714
  0.8571428571428571  0.0000000000000000  0.5714285714285714
  0.0000000000000000  0.1428571428571428  0.5714285714285714
  0.1428571428571428  0.1428571428571428  0.5714285714285714
  0.2857142857142857  0.1428571428571428  0.5714285714285714
  0.4285714285714285  0.1428571428571428  0.5714285714285714
  0.5714285714285714  0.1428571428571428  0.5714285714285714
  0.7142857142857142  0.1428571428571428  0.5714285714285714
  0.8571428571428571  0.1428571428571428  0.5714285714285714
  0.0000000000000000  0.2857142857142857  0.5714285714285714
  0.1428571428571428  0.2857142857142857  0.5714285714285714
  0.2857142857142857  0.2857142857142857  0.5714285714285714
  0.4285714285714285  0.2857142857142857  0.5714285714285714
  0.5714285714285714  0.2857142857142857  0.5714285714285714
  0.7142857142857142  0.2857142857142857  0.5714285714285714
  0.8571428571428571  0.2857142857142857  0.5714285714285714
  0.0000000000000000  0.4285714285714285  0.5714285714285714
  0.1428571428571428  0.4285714285714285  0.5714285714285714
  0.2857142857142857  0.4285714285714285  0.5714285714285714
  0.4285714285714285  0.4285714285714285  0.5714285714285714
  0.5714285714285714  0.4285714285714285  0.5714285714285714
  0.7142857142857142  0.4285714285714285  0.5714285714285714
  0.8571428571428571  0.4285714285714285  0.5714285714285714
  0.0000000000000000  0.5714285714285714  0.5714285714285714
  0.1428571428571428  0.5714285714285714  0.5714285714285714
  0.2857142857142857  0.5714285714285714  0.5714285714285714
  0.4285714285714285  0.5714285714285714  0.5714285714285714
  0.5714285714285714  0.5714285714285714  0.5714285714285714
  0.7142857142857142  0.5714285714285714  0.5714285714285714
  0.8571428571428571  0.5714285714285714  0.5714285714285714
  0.0000000000000000  0.7142857142857142  0.5714285714285714
  0.1428571428571428  0.7142857142857142  0.5714285714285714
  0.2857142857142857  0.7142857142857142  0.5714285714285714
  0.4285714285714285  0.7142857142857142  0.5714285714285714
  0.5714285714285714  0.7142857142857142  0.5714285714285714
  0.7142857142857142  0.7142857142857142  0.5714285714285714
  0.8571428571428571  0.7142857142857142  0.5714285714285714
  0.0000000000000000  0.8571428571428571  0.5714285714285714
  0.1428571428571428  0.8571428571428571  0.5714285714285714
  0.2857142857142857  0.8571428571428571  0.5714285714285714
  0.4285714285714285  0.8571428571428571  0.5714285714285714
  0.5714285714285714  0.8571428571428571  0.5714285714285714
  0.7142857142857142  0.8571428571428571  0.5714285714285714
  0.8571428571428571  0.8571428571428571  0.5714285714285714
  0.0000000000000000  0.0000000000000000  0.7142857142857142
  0.1428571428571428  0.0000000000000000  0.7142857142857142
  0.2857142857142857  0.0000000000000000  0.7142857142857142
  0.4285714285714285  0.0000000000000000  0.7142857142857142
  0.5714285714285714  0.0000000000000000  0.7142857142857142
  0.7142857142857142  0.0000000000000000  0.7142857142857142
  0.8571428571428571  0.0000000000000000  0.7142857142857142
  0.0000000000000000  0.1428571428571428  0.7142857142857142
  0.1428571428571428  0.1428571428571428  0.7142857142857142
  0.2857142857142857  0.1428571428571428  0.7142857142857142
  0.4285714285714285  0.1428571428571428  0.7142857142857142
  0.5714285714285714  0.1428571428571428  0.7142857142857142
  0.7142857142857142  0.1428571428571428  0.7142857142857142
  0.8571428571428571  0.1428571428571428  0.7142857142857142
  0.0000000000000000  0.2857142857142857  0.7142857142857142
  0.1428571428571428  0.2857142857142857  0.7142857142857142
  0.2857142857142857  0.2857142857142857  0.7142857142857142
  0.4285714285714285  0.2857142857142857  0.7142857142857142
  0.5714285714285714  0.2857142857142857  0.7142857142857142
  0.7142857142857142  0.2857142857142857  0.7142857142857142
  0.8571428571428571  0.2857142857142857  0.7142857142857142
  0.0000000000000000  0.4285714285714285  0.7142857142857142
  0.1428571428571428  0.4285714285714285  0.7142857142857142
  0.2857142857142857  0.4285714285714285  0.7142857142857142
  0.4285714285714285  0.4285714285714285  0.7142857142857142
  0.5714285714285714  0.4285714285714285  0.7142857142857142
  0.7142857142857142  0.4285714285714285  0.7142857142857142
  0.8571428571428571  0.4285714285714285  0.7142857142857142
  0.0000000000000000  0.5714285714285714  0.7142857142857142
  0.1428571428571428  0.5714285714285714  0.7142857142857142
  0.2857142857142857  0.5714285714285714  0.7142857142857142
  0.4285714285714285  0.5714285714285714  0.7142857142857142
  0.5714285714285714  0.5714285714285714  0.7142857142857142
  0.7142857142857142  0.5714285714285714  0.7142857142857142
  0.8571428571428571  0.5714285714285714  0.7142857142857142
  0.0000000000000000  0.7142857142857142  0.7142857142857142
  0.1428571428571428  0.7142857142857142  0.7142857142857142
  0.2857142857142857  0.7142857142857142  0.7142857142857142
  0.4285714285714285  0.7142857142857142  0.7142857142857142
  0.5714285714285714  0.7142857142857142  0.7142857142857142
  0.7142857142857142  0.7142857142857142  0.7142857142857142
  0.8571428571428571  0.7142857142857142  0.7142857142857142
  0.0000000000000000  0.8571428571428571  0.7142857142857142
  0.1428571428571428  0.8571428571428571  0.7142857142857142
  0.2857142857142857  0.8571428571428571  0.7142857142857142
  0.4285714285714285  0.8571428571428571  0.7142857142857142
  0.5714285714285714  0.8571428571428571  0.7142857142857142
  0.7142857142857142  0.8571428571428571  0.7142857142857142
  0.8571428571428571  0.8571428571428571  0.7142857142857142
  0.0000000000000000  0.0000000000000000  0.8571428571428571
  0.1428571428571428  0.0000000000000000  0.8571428571428571
  0.2857142857142857  0.0000000000000000  0.8571428571428571
  0.4285714285714285  0.0000000000000000  0.8571428571428571
  0.5714285714285714  0.0000000000000000  0.8571428571428571
  0.7142857142857142  0.0000000000000000  0.8571428571428571
  0.8571428571428571  0.0000000000000000  0.8571428571428571
  0.0000000000000000  0.1428571428571428  0.8571428571428571
  0.1428571428571428  0.1428571428571428  0.8571428571428571
  0.2857142857142857  0.1428571428571428  0.8571428571428571
  0.4285714285714285  0.1428571428571428  0.8571428571428571
  0.5714285714285714  0.1428571428571428  0.8571428571428571
  0.7142857142857142  0.1428571428571428  0.8571428571428571
  0.8571428571428571  0.1428571428571428  0.8571428571428571
  0.0000000000000000  0.2857142857142857  0.8571428571428571
  0.1428571428571428  0.2857142857142857  0.8571428571428571
  0.2857142857142857  0.2857142857142857  0.8571428571428571
  0.4285714285714285  0.2857142857142857  0.8571428571428571
  0.5714285714285714  0.2857142857142857  0.8571428571428571
  0.7142857142857142  0.2857142857142857  0.8571428571428571
  0.8571428571428571  0.2857142857142857  0.8571428571428571
  0.0000000000000000  0.4285714285714285  0.8571428571428571
  0.1428571428571428  0.4285714285714285  0.8571428571428571
  0.2857142857142857  0.4285714285714285  0.8571428571428571
  0.4285714285714285  0.4285714285714285  0.8571428571428571
  0.5714285714285714  0.4285714285714285  0.8571428571428571
  0.7142857142857142  0.4285714285714285  0.8571428571428571
  0.8571428571428571  0.4285714285714285  0.8571428571428571
  0.0000000000000000  0.5714285714285714  0.8571428571428571
  0.1428571428571428  0.5714285714285714  0.8571428571428571
  0.2857142857142857  0.5714285714285714  0.8571428571428571
  0.4285714285714285  0.5714285714285714  0.8571428571428571
  0.5714285714285714  0.5714285714285714  0.8571428571428571
  0.7142857142857142  0.5714285714285714  0.8571428571428571
  0.8571428571428571  0.5714285714285714  0.8571428571428571
  0.0000000000000000  0.7142857142857142  0.8571428571428571
  0.1428571428571428  0.7142857142857142  0.8571428571428571
  0.2857142857142857  0.7142857142857142  0.8571428571428571
  0.4285714285714285  0.7142857142857142  0.8571428571428571
  0.5714285714285714  0.7142857142857142  0.8571428571428571
  0.7142857142857142  0.7142857142857142  0.8571428571428571
  0.8571428571428571  0.7142857142857142  0.8571428571428571
  0.0000000000000000  0.8571428571428571  0.8571428571428571
  0.1428571428571428  0.8571428571428571  0.8571428571428571
  0.2857142857142857  0.8571428571428571  0.8571428571428571
  0.4285714285714285  0.8571428571428571  0.8571428571428571
  0.5714285714285714  0.8571428571428571  0.8571428571428571
  0.7142857142857142  0.8571428571428571  0.8571428571428571
  0.8571428571428571  0.8571428571428571  0.8571428571428571
  0.0714285714285714  0.0714285714285714  0.0714285714285714
  0.2142857142857143  0.0714285714285714  0.0714285714285714
  0.3571428571428571  0.0714285714285714  0.0714285714285714
  0.5000000000000000  0.0714285714285714  0.0714285714285714
  0.6428571428571428  0.0714285714285714  0.0714285714285714
  0.7857142857142857  0.0714285714285714  0.0714285714285714
  0.9285714285714285  0.0714285714285714  0.0714285714285714
  0.0714285714285714  0.2142857142857143  0.0714285714285714
  0.2142857142857143  0.2142857142857143  0.0714285714285714
  0.3571428571428571  0.2142857142857143  0.0714285714285714
  0.5000000000000000  0.2142857142857143  0.0714285714285714
  0.6428571428571428  0.2142857142857143  0.0714285714285714
  0.7857142857142857  0.2142857142857143  0.0714285714285714
  0.9285714285714285  0.2142857142857143  0.0714285714285714
  0.0714285714285714  0.3571428571428571  0.0714285714285714
  0.2142857142857143  0.3571428571428571  0.0714285714285714
  0.3571428571428571  0.3571428571428571  0.0714285714285714
  0.5000000000000000  0.3571428571428571  0.0714285714285714
  0.6428571428571428  0.3571428571428571  0.0714285714285714
  0.7857142857142857  0.3571428571428571  0.0714285714285714
  0.9285714285714285  0.3571428571428571  0.0714285714285714
  0.0714285714285714  0.5000000000000000  0.0714285714285714
  0.2142857142857143  0.5000000000000000  0.0714285714285714
  0.3571428571428571  0.5000000000000000  0.0714285714285714
  0.5000000000000000  0.5000000000000000  0.0714285714285714
  0.6428571428571428  0.5000000000000000  0.0714285714285714
  0.7857142857142857  0.5000000000000000  0.0714285714285714
  0.9285714285714285  0.5000000000000000  0.0714285714285714
  0.0714285714285714  0.6428571428571428  0.0714285714285714
  0.2142857142857143  0.6428571428571428  0.0714285714285714
  0.3571428571428571  0.6428571428571428  0.0714285714285714
  0.5000000000000000  0.6428571428571428  0.0714285714285714
  0.6428571428571428  0.6428571428571428  0.0714285714285714
  0.7857142857142857  0.6428571428571428  0.0714285714285714
  0.9285714285714285  0.6428571428571428  0.0714285714285714
  0.0714285714285714  0.7857142857142857  0.0714285714285714
  0.2142857142857143  0.7857142857142857  0.0714285714285714
  0.3571428571428571  0.7857142857142857  0.0714285714285714
  0.5000000000000000  0.7857142857142857  0.0714285714285714
  0.6428571428571428  0.7857142857142857  0.0714285714285714
  0.7857142857142857  0.7857142857142857  0.0714285714285714
  0.9285714285714285  0.7857142857142857  0.0714285714285714
  0.0714285714285714  0.9285714285714285  0.0714285714285714
  0.2142857142857143  0.9285714285714285  0.0714285714285714
  0.3571428571428571  0.9285714285714285  0.0714285714285714
  0.5000000000000000  0.9285714285714285  0.0714285714285714
  0.6428571428571428  0.9285714285714285  0.0714285714285714
  0.7857142857142857  0.9285714285714285  0.0714285714285714
  0.9285714285714285  0.9285714285714285  0.0714285714285714
  0.0714285714285714  0.0714285714285714  0.2142857142857143
  0.2142857142857143  0.0714285714285714  0.2142857142857143
  0.3571428571428571  0.0714285714285714  0.2142857142857143
  0.5000000000000000  0.0714285714285714  0.2142857142857143
  0.6428571428571428  0.0714285714285714  0.2142857142857143
  0.7857142857142857  0.0714285714285714  0.2142857142857143
  0.9285714285714285  0.0714285714285714  0.2142857142857143
  0.0714285714285714  0.2142857142857143  0.2142857142857143
  0.2142857142857143  0.2142857142857143  0.2142857142857143
  0.3571428571428571  0.2142857142857143  0.2142857142857143
  0.5000000000000000  0.2142857142857143  0.2142857142857143
  0.6428571428571428  0.2142857142857143  0.2142857142857143
  0.7857142857142857  0.2142857142857143  0.2142857142857143
  0.9285714285714285  0.2142857142857143  0.2142857142857143
  0.0714285714285714  0.3571428571428571  0.2142857142857143
  0.2142857142857143  0.3571428571428571  0.2142857142857143
  0.3571428571428571  0.3571428571428571  0.2142857142857143
  0.5000000000000000  0.3571428571428571  0.2142857142857143
  0.6428571428571428  0.3571428571428571  0.2142857142857143
  0.7857142857142857  0.3571428571428571  0.2142857142857143
  0.9285714285714285  0.3571428571428571  0.2142857142857143
  0.0714285714285714  0.5000000000000000  0.2142857142857143
  0.2142857142857143  0.5000000000000000  0.2142857142857143
  0.3571428571428571  0.5000000000000000  0.2142857142857143
  0.5000000000000000  0.5000000000000000  0.2142857142857143
  0.6428571428571428  0.5000000000000000  0.2142857142857143
  0.7857142857142857  0.5000000000000000  0.2142857142857143
  0.9285714285714285  0.5000000000000000  0.2142857142857143
  0.0714285714285714  0.6428571428571428  0.2142857142857143
  0.2142857142857143  0.6428571428571428  0.2142857142857143
  0.3571428571428571  0.6428571428571428  0.2142857142857143
  0.5000000000000000  0.6428571428571428  0.2142857142857143
  0.6428571428571428  0.6428571428571428  0.2142857142857143
  0.7857142857142857  0.6428571428571428  0.2142857142857143
  0.9285714285714285  0.6428571428571428  0.2142857142857143
  0.0714285714285714  0.7857142857142857  0.2142857142857143
  0.2142857142857143  0.7857142857142857  0.2142857142857143
  0.3571428571428571  0.7857142857142857  0.2142857142857143
  0.5000000000000000  0.7857142857142857  0.2142857142857143
  0.6428571428571428  0.7857142857142857  0.2142857142857143
  0.7857142857142857  0.7857142857142857  0.2142857142857143
  0.9285714285714285  0.7857142857142857  0.2142857142857143
  0.0714285714285714  0.9285714285714285  0.2142857142857143
  0.2142857142857143  0.9285714285714285  0.2142857142857143
  0.3571428571428571  0.9285714285714285  0.2142857142857143
  0.5000000000000000  0.9285714285714285  0.2142857142857143
  0.6428571428571428  0.9285714285714285  0.2142857142857143
  0.7857142857142857  0.9285714285714285  0.2142857142857143
  0.9285714285714285  0.9285714285714285  0.2142857142857143
  0.0714285714285714  0.0714285714285714  0.3571428571428571
  0.2142857142857143  0.0714285714285714  0.3571428571428571
  0.3571428571428571  0.0714285714285714  0.3571428571428571
  0.5000000000000000  0.0714285714285714  0.3571428571428571
  0.6428571428571428  0.0714285714285714  0.3571428571428571
  0.7857142857142857  0.0714285714285714  0.3571428571428571
  0.9285714285714285  0.0714285714285714  0.3571428571428571
  0.0714285714285714  0.2142857142857143  0.3571428571428571
  0.2142857142857143  0.2142857142857143  0.3571428571428571
  0.3571428571428571  0.2142857142857143  0.3571428571428571
  0.5000000000000000  0.2142857142857143  0.3571428571428571
  0.6428571428571428  0.2142857142857143  0.3571428571428571
  0.7857142857142857  0.2142857142857143  0.3571428571428571
  0.9285714285714285  0.2142857142857143  0.3571428571428571
  0.0714285714285714  0.3571428571428571  0.3571428571428571
  0.2142857142857143  0.3571428571428571  0.3571428571428571
  0.3571428571428571  0.3571428571428571  0.3571428571428571
  0.5000000000000000  0.3571428571428571  0.3571428571428571
  0.6428571428571428  0.3571428571428571  0.3571428571428571
  0.7857142857142857  0.3571428571428571  0.3571428571428571
  0.9285714285714285  0.3571428571428571  0.3571428571428571
  0.0714285714285714  0.5000000000000000  0.3571428571428571
  0.2142857142857143  0.5000000000000000  0.3571428571428571
  0.3571428571428571  0.5000000000000000  0.3571428571428571
  0.5000000000000000  0.5000000000000000  0.3571428571428571
  0.6428571428571428  0.5000000000000000  0.3571428571428571
  0.7857142857142857  0.5000000000000000  0.3571428571428571
  0.9285714285714285  0.5000000000000000  0.3571428571428571
  0.0714285714285714  0.6428571428571428  0.3571428571428571
  0.2142857142857143  0.6428571428571428  0.3571428571428571
  0.3571428571428571  0.6428571428571428  0.3571428571428571
  0.5000000000000000  0.6428571428571428  0.3571428571428571
  0.6428571428571428  0.6428571428571428  0.3571428571428571
  0.7857142857142857  0.6428571428571428  0.3571428571428571
  0.9285714285714285  0.6428571428571428  0.3571428571428571
  0.0714285714285714  0.7857142857142857  0.3571428571428571
  0.2142857142857143  0.7857142857142857  0.3571428571428571
  0.3571428571428571  0.7857142857142857  0.3571428571428571
  0.5000000000000000  0.7857142857142857  0.3571428571428571
  0.6428571428571428  0.7857142857142857  0.3571428571428571
  0.7857142857142857  0.7857142857142857  0.3571428571428571
  0.9285714285714285  0.7857142857142857  0.3571428571428571
  0.0714285714285714  0.9285714285714285  0.3571428571428571
  0.2142857142857143  0.9285714285714285  0.3571428571428571
  0.3571428571428571  0.9285714285714285  0.3571428571428571
  0.5000000000000000  0.9285714285714285  0.3571428571428571