Generated by cif2cell 2.1.0 from ICSD re
   1.00000000000000     
     0.0000000000000000    1.7784333496047660    1.7784333496047660
     1.7784333496047660    0.0000000000000000    1.7784333496047660
     1.7784333496047660    1.7784333496047660    0.0000000000000000
   C 
     2
Direct
  0.0000000000000000  0.0000000000000000  0.0000000000000000
  0.2500000000000000  0.2500000000000000  0.2500000000000000
 
  0.00000000E+00  0.00000000E+00  0.00000000E+00
  0.00000000E+00  0.00000000E+00  0.00000000E+00
