generated by phonopy
   1.0
     0.0000000000000000   17.7843334960476582   17.7843334960476582
    17.7843334960476582    0.0000000000000000   17.7843334960476582
    17.7843334960476582   17.7843334960476582    0.0000000000000000
C
2000
Direct
  0.0000000000000000  0.0000000000000000  0.0000000000000000
  0.1000000000000000  0.0000000000000000  0.0000000000000000
  0.2000000000000000  0.0000000000000000  0.0000000000000000
  0.3000000000000000  0.0000000000000000  0.0000000000000000
  0.4000000000000000  0.0000000000000000  0.0000000000000000
  0.5000000000000000  0.0000000000000000  0.0000000000000000
  0.6000000000000001  0.0000000000000000  0.0000000000000000
  0.7000000000000001  0.0000000000000000  0.0000000000000000
  0.8000000000000000  0.0000000000000000  0.0000000000000000
  0.9000000000000000  0.0000000000000000  0.0000000000000000
  0.0000000000000000  0.1000000000000000  0.0000000000000000
  0.1000000000000000  0.1000000000000000  0.0000000000000000
  0.2000000000000000  0.1000000000000000  0.0000000000000000
  0.3000000000000000  0.1000000000000000  0.0000000000000000
  0.4000000000000000  0.1000000000000000  0.0000000000000000
  0.5000000000000000  0.1000000000000000  0.0000000000000000
  0.6000000000000001  0.1000000000000000  0.0000000000000000
  0.7000000000000001  0.1000000000000000  0.0000000000000000
  0.8000000000000000  0.1000000000000000  0.0000000000000000
  0.9000000000000000  0.1000000000000000  0.0000000000000000
  0.0000000000000000  0.2000000000000000  0.0000000000000000
  0.1000000000000000  0.2000000000000000  0.0000000000000000
  0.2000000000000000  0.2000000000000000  0.0000000000000000
  0.3000000000000000  0.2000000000000000  0.0000000000000000
  0.4000000000000000  0.2000000000000000  0.0000000000000000
  0.5000000000000000  0.2000000000000000  0.0000000000000000
  0.6000000000000001  0.2000000000000000  0.0000000000000000
  0.7000000000000001  0.2000000000000000  0.0000000000000000
  0.8000000000000000  0.2000000000000000  0.0000000000000000
  0.9000000000000000  0.2000000000000000  0.0000000000000000
  0.0000000000000000  0.3000000000000000  0.0000000000000000
  0.1000000000000000  0.3000000000000000  0.0000000000000000
  0.2000000000000000  0.3000000000000000  0.0000000000000000
  0.3000000000000000  0.3000000000000000  0.0000000000000000
  0.4000000000000000  0.3000000000000000  0.0000000000000000
  0.5000000000000000  0.3000000000000000  0.0000000000000000
  0.6000000000000001  0.3000000000000000  0.0000000000000000
  0.7000000000000001  0.3000000000000000  0.0000000000000000
  0.8000000000000000  0.3000000000000000  0.0000000000000000
  0.9000000000000000  0.3000000000000000  0.0000000000000000
  0.0000000000000000  0.4000000000000000  0.0000000000000000
  0.1000000000000000  0.4000000000000000  0.0000000000000000
  0.2000000000000000  0.4000000000000000  0.0000000000000000
  0.3000000000000000  0.4000000000000000  0.0000000000000000
  0.4000000000000000  0.4000000000000000  0.0000000000000000
  0.5000000000000000  0.4000000000000000  0.0000000000000000
  0.6000000000000001  0.4000000000000000  0.0000000000000000
  0.7000000000000001  0.4000000000000000  0.0000000000000000
  0.8000000000000000  0.4000000000000000  0.0000000000000000
  0.9000000000000000  0.4000000000000000  0.0000000000000000
  0.0000000000000000  0.5000000000000000  0.0000000000000000
  0.1000000000000000  0.5000000000000000  0.0000000000000000
  0.2000000000000000  0.5000000000000000  0.0000000000000000
  0.3000000000000000  0.5000000000000000  0.0000000000000000
  0.4000000000000000  0.5000000000000000  0.0000000000000000
  0.5000000000000000  0.5000000000000000  0.0000000000000000
  0.6000000000000001  0.5000000000000000  0.0000000000000000
  0.7000000000000001  0.5000000000000000  0.0000000000000000
  0.8000000000000000  0.5000000000000000  0.0000000000000000
  0.9000000000000000  0.5000000000000000  0.0000000000000000
  0.0000000000000000  0.6000000000000001  0.0000000000000000
  0.1000000000000000  0.6000000000000001  0.0000000000000000
  0.2000000000000000  0.6000000000000001  0.0000000000000000
  0.3000000000000000  0.6000000000000001  0.0000000000000000
  0.4000000000000000  0.6000000000000001  0.0000000000000000
  0.5000000000000000  0.6000000000000001  0.0000000000000000
  0.6000000000000001  0.6000000000000001  0.0000000000000000
  0.7000000000000001  0.6000000000000001  0.0000000000000000
  0.8000000000000000  0.6000000000000001  0.0000000000000000
  0.9000000000000000  0.6000000000000001  0.0000000000000000
  0.0000000000000000  0.7000000000000001  0.0000000000000000
  0.1000000000000000  0.7000000000000001  0.0000000000000000
  0.2000000000000000  0.7000000000000001  0.0000000000000000
  0.3000000000000000  0.7000000000000001  0.0000000000000000
  0.4000000000000000  0.7000000000000001  0.0000000000000000
  0.5000000000000000  0.7000000000000001  0.0000000000000000
  0.6000000000000001  0.7000000000000001  0.0000000000000000
  0.7000000000000001  0.7000000000000001  0.0000000000000000
  0.8000000000000000  0.7000000000000001  0.0000000000000000
  0.9000000000000000  0.7000000000000001  0.0000000000000000
  0.0000000000000000  0.8000000000000000  0.0000000000000000
  0.1000000000000000  0.8000000000000000  0.0000000000000000
  0.2000000000000000  0.8000000000000000  0.0000000000000000
  0.3000000000000000  0.8000000000000000  0.0000000000000000
  0.4000000000000000  0.8000000000000000  0.0000000000000000
  0.5000000000000000  0.8000000000000000  0.0000000000000000
  0.6000000000000001  0.8000000000000000  0.0000000000000000
  0.7000000000000001  0.8000000000000000  0.0000000000000000
  0.8000000000000000  0.8000000000000000  0.0000000000000000
  0.9000000000000000  0.8000000000000000  0.0000000000000000
  0.0000000000000000  0.9000000000000000  0.0000000000000000
  0.1000000000000000  0.9000000000000000  0.0000000000000000
  0.2000000000000000  0.9000000000000000  0.0000000000000000
  0.3000000000000000  0.9000000000000000  0.0000000000000000
  0.4000000000000000  0.9000000000000000  0.0000000000000000
  0.5000000000000000  0.9000000000000000  0.0000000000000000
  0.6000000000000001  0.9000000000000000  0.0000000000000000
  0.7000000000000001  0.9000000000000000  0.0000000000000000
  0.8000000000000000  0.9000000000000000  0.0000000000000000
  0.9000000000000000  0.9000000000000000  0.0000000000000000
  0.0000000000000000  0.0000000000000000  0.1000000000000000
  0.1000000000000000  0.0000000000000000  0.1000000000000000
  0.2000000000000000  0.0000000000000000  0.1000000000000000
  0.3000000000000000  0.0000000000000000  0.1000000000000000
  0.4000000000000000  0.0000000000000000  0.1000000000000000
  0.5000000000000000  0.0000000000000000  0.1000000000000000
  0.6000000000000001  0.0000000000000000  0.1000000000000000
  0.7000000000000001  0.0000000000000000  0.1000000000000000
  0.8000000000000000  0.0000000000000000  0.1000000000000000
  0.9000000000000000  0.0000000000000000  0.1000000000000000
  0.0000000000000000  0.1000000000000000  0.1000000000000000
  0.1000000000000000  0.1000000000000000  0.1000000000000000
  0.2000000000000000  0.1000000000000000  0.1000000000000000
  0.3000000000000000  0.1000000000000000  0.1000000000000000
  0.4000000000000000  0.1000000000000000  0.1000000000000000
  0.5000000000000000  0.1000000000000000  0.1000000000000000
  0.6000000000000001  0.1000000000000000  0.1000000000000000
  0.7000000000000001  0.1000000000000000  0.1000000000000000
  0.8000000000000000  0.1000000000000000  0.1000000000000000
  0.9000000000000000  0.1000000000000000  0.1000000000000000
  0.0000000000000000  0.2000000000000000  0.1000000000000000
  0.1000000000000000  0.2000000000000000  0.1000000000000000
  0.2000000000000000  0.2000000000000000  0.1000000000000000
  0.3000000000000000  0.2000000000000000  0.1000000000000000
  0.4000000000000000  0.2000000000000000  0.1000000000000000
  0.5000000000000000  0.2000000000000000  0.1000000000000000
  0.6000000000000001  0.2000000000000000  0.1000000000000000
  0.7000000000000001  0.2000000000000000  0.1000000000000000
  0.8000000000000000  0.2000000000000000  0.1000000000000000
  0.9000000000000000  0.2000000000000000  0.1000000000000000
  0.0000000000000000  0.3000000000000000  0.1000000000000000
  0.1000000000000000  0.3000000000000000  0.1000000000000000
  0.2000000000000000  0.3000000000000000  0.1000000000000000
  0.3000000000000000  0.3000000000000000  0.1000000000000000
  0.4000000000000000  0.3000000000000000  0.1000000000000000
  0.5000000000000000  0.3000000000000000  0.1000000000000000
  0.6000000000000001  0.3000000000000000  0.1000000000000000
  0.7000000000000001  0.3000000000000000  0.1000000000000000
  0.8000000000000000  0.3000000000000000  0.1000000000000000
  0.9000000000000000  0.3000000000000000  0.1000000000000000
  0.0000000000000000  0.4000000000000000  0.1000000000000000
  0.1000000000000000  0.4000000000000000  0.1000000000000000
  0.2000000000000000  0.4000000000000000  0.1000000000000000
  0.3000000000000000  0.4000000000000000  0.1000000000000000
  0.4000000000000000  0.4000000000000000  0.1000000000000000
  0.5000000000000000  0.4000000000000000  0.1000000000000000
  0.6000000000000001  0.4000000000000000  0.1000000000000000
  0.7000000000000001  0.4000000000000000  0.1000000000000000
  0.8000000000000000  0.4000000000000000  0.1000000000000000
  0.9000000000000000  0.4000000000000000  0.1000000000000000
  0.0000000000000000  0.5000000000000000  0.1000000000000000
  0.1000000000000000  0.5000000000000000  0.1000000000000000
  0.2000000000000000  0.5000000000000000  0.1000000000000000
  0.3000000000000000  0.5000000000000000  0.1000000000000000
  0.4000000000000000  0.5000000000000000  0.1000000000000000
  0.5000000000000000  0.5000000000000000  0.1000000000000000
  0.6000000000000001  0.5000000000000000  0.1000000000000000
  0.7000000000000001  0.5000000000000000  0.1000000000000000
  0.8000000000000000  0.5000000000000000  0.1000000000000000
  0.9000000000000000  0.5000000000000000  0.1000000000000000
  0.0000000000000000  0.6000000000000001  0.1000000000000000
  0.1000000000000000  0.6000000000000001  0.1000000000000000
  0.2000000000000000  0.6000000000000001  0.1000000000000000
  0.3000000000000000  0.6000000000000001  0.1000000000000000
  0.4000000000000000  0.6000000000000001  0.1000000000000000
  0.5000000000000000  0.6000000000000001  0.1000000000000000
  0.6000000000000001  0.6000000000000001  0.1000000000000000
  0.7000000000000001  0.6000000000000001  0.1000000000000000
  0.8000000000000000  0.6000000000000001  0.1000000000000000
  0.9000000000000000  0.6000000000000001  0.1000000000000000
  0.0000000000000000  0.7000000000000001  0.1000000000000000
  0.1000000000000000  0.7000000000000001  0.1000000000000000
  0.2000000000000000  0.7000000000000001  0.1000000000000000
  0.3000000000000000  0.7000000000000001  0.1000000000000000
  0.4000000000000000  0.7000000000000001  0.1000000000000000
  0.5000000000000000  0.7000000000000001  0.1000000000000000
  0.6000000000000001  0.7000000000000001  0.1000000000000000
  0.7000000000000001  0.7000000000000001  0.1000000000000000
  0.8000000000000000  0.7000000000000001  0.1000000000000000
  0.9000000000000000  0.7000000000000001  0.1000000000000000
  0.0000000000000000  0.8000000000000000  0.1000000000000000
  0.1000000000000000  0.8000000000000000  0.1000000000000000
  0.2000000000000000  0.8000000000000000  0.1000000000000000
  0.3000000000000000  0.8000000000000000  0.1000000000000000
  0.4000000000000000  0.8000000000000000  0.1000000000000000
  0.5000000000000000  0.8000000000000000  0.1000000000000000
  0.6000000000000001  0.8000000000000000  0.1000000000000000
  0.7000000000000001  0.8000000000000000  0.1000000000000000
  0.8000000000000000  0.8000000000000000  0.1000000000000000
  0.9000000000000000  0.8000000000000000  0.1000000000000000
  0.0000000000000000  0.9000000000000000  0.1000000000000000
  0.1000000000000000  0.9000000000000000  0.1000000000000000
  0.2000000000000000  0.9000000000000000  0.1000000000000000
  0.3000000000000000  0.9000000000000000  0.1000000000000000
  0.4000000000000000  0.9000000000000000  0.1000000000000000
  0.5000000000000000  0.9000000000000000  0.1000000000000000
  0.6000000000000001  0.9000000000000000  0.1000000000000000
  0.7000000000000001  0.9000000000000000  0.1000000000000000
  0.8000000000000000  0.9000000000000000  0.1000000000000000
  0.9000000000000000  0.9000000000000000  0.1000000000000000
  0.0000000000000000  0.0000000000000000  0.2000000000000000
  0.1000000000000000  0.0000000000000000  0.2000000000000000
  0.2000000000000000  0.0000000000000000  0.2000000000000000
  0.3000000000000000  0.0000000000000000  0.2000000000000000
  0.4000000000000000  0.0000000000000000  0.2000000000000000
  0.5000000000000000  0.0000000000000000  0.2000000000000000
  0.6000000000000001  0.0000000000000000  0.2000000000000000
  0.7000000000000001  0.0000000000000000  0.2000000000000000
  0.8000000000000000  0.0000000000000000  0.2000000000000000
  0.9000000000000000  0.0000000000000000  0.2000000000000000
  0.0000000000000000  0.1000000000000000  0.2000000000000000
  0.1000000000000000  0.1000000000000000  0.2000000000000000
  0.2000000000000000  0.1000000000000000  0.2000000000000000
  0.3000000000000000  0.1000000000000000  0.2000000000000000
  0.4000000000000000  0.1000000000000000  0.2000000000000000
  0.5000000000000000  0.1000000000000000  0.2000000000000000
  0.6000000000000001  0.1000000000000000  0.2000000000000000
  0.7000000000000001  0.1000000000000000  0.2000000000000000
  0.8000000000000000  0.1000000000000000  0.2000000000000000
  0.9000000000000000  0.1000000000000000  0.2000000000000000
  0.0000000000000000  0.2000000000000000  0.2000000000000000
  0.1000000000000000  0.2000000000000000  0.2000000000000000
  0.2000000000000000  0.2000000000000000  0.2000000000000000
  0.3000000000000000  0.2000000000000000  0.2000000000000000
  0.4000000000000000  0.2000000000000000  0.2000000000000000
  0.5000000000000000  0.2000000000000000  0.2000000000000000
  0.6000000000000001  0.2000000000000000  0.2000000000000000
  0.7000000000000001  0.2000000000000000  0.2000000000000000
  0.8000000000000000  0.2000000000000000  0.2000000000000000
  0.9000000000000000  0.2000000000000000  0.2000000000000000
  0.0000000000000000  0.3000000000000000  0.2000000000000000
  0.1000000000000000  0.3000000000000000  0.2000000000000000
  0.2000000000000000  0.3000000000000000  0.2000000000000000
  0.3000000000000000  0.3000000000000000  0.2000000000000000
  0.4000000000000000  0.3000000000000000  0.2000000000000000
  0.5000000000000000  0.3000000000000000  0.2000000000000000
  0.6000000000000001  0.3000000000000000  0.2000000000000000
  0.7000000000000001  0.3000000000000000  0.2000000000000000
  0.8000000000000000  0.3000000000000000  0.2000000000000000
  0.9000000000000000  0.3000000000000000  0.2000000000000000
  0.0000000000000000  0.4000000000000000  0.2000000000000000
  0.1000000000000000  0.4000000000000000  0.2000000000000000
  0.2000000000000000  0.4000000000000000  0.2000000000000000
  0.3000000000000000  0.4000000000000000  0.2000000000000000
  0.4000000000000000  0.4000000000000000  0.2000000000000000
  0.5000000000000000  0.4000000000000000  0.2000000000000000
  0.6000000000000001  0.4000000000000000  0.2000000000000000
  0.7000000000000001  0.4000000000000000  0.2000000000000000
  0.8000000000000000  0.4000000000000000  0.2000000000000000
  0.9000000000000000  0.4000000000000000  0.2000000000000000
  0.0000000000000000  0.5000000000000000  0.2000000000000000
  0.1000000000000000  0.5000000000000000  0.2000000000000000
  0.2000000000000000  0.5000000000000000  0.2000000000000000
  0.3000000000000000  0.5000000000000000  0.2000000000000000
  0.4000000000000000  0.5000000000000000  0.2000000000000000
  0.5000000000000000  0.5000000000000000  0.2000000000000000
  0.6000000000000001  0.5000000000000000  0.2000000000000000
  0.7000000000000001  0.5000000000000000  0.2000000000000000
  0.8000000000000000  0.5000000000000000  0.2000000000000000
  0.9000000000000000  0.5000000000000000  0.2000000000000000
  0.0000000000000000  0.6000000000000001  0.2000000000000000
  0.1000000000000000  0.6000000000000001  0.2000000000000000
  0.2000000000000000  0.6000000000000001  0.2000000000000000
  0.3000000000000000  0.6000000000000001  0.2000000000000000
  0.4000000000000000  0.6000000000000001  0.2000000000000000
  0.5000000000000000  0.6000000000000001  0.2000000000000000
  0.6000000000000001  0.6000000000000001  0.2000000000000000
  0.7000000000000001  0.6000000000000001  0.2000000000000000
  0.8000000000000000  0.6000000000000001  0.2000000000000000
  0.9000000000000000  0.6000000000000001  0.2000000000000000
  0.0000000000000000  0.7000000000000001  0.2000000000000000
  0.1000000000000000  0.7000000000000001  0.2000000000000000
  0.2000000000000000  0.7000000000000001  0.2000000000000000
  0.3000000000000000  0.7000000000000001  0.2000000000000000
  0.4000000000000000  0.7000000000000001  0.2000000000000000
  0.5000000000000000  0.7000000000000001  0.2000000000000000
  0.6000000000000001  0.7000000000000001  0.2000000000000000
  0.7000000000000001  0.7000000000000001  0.2000000000000000
  0.8000000000000000  0.7000000000000001  0.2000000000000000
  0.9000000000000000  0.7000000000000001  0.2000000000000000
  0.0000000000000000  0.8000000000000000  0.2000000000000000
  0.1000000000000000  0.8000000000000000  0.2000000000000000
  0.2000000000000000  0.8000000000000000  0.2000000000000000
  0.3000000000000000  0.8000000000000000  0.2000000000000000
  0.4000000000000000  0.8000000000000000  0.2000000000000000
  0.5000000000000000  0.8000000000000000  0.2000000000000000
  0.6000000000000001  0.8000000000000000  0.2000000000000000
  0.7000000000000001  0.8000000000000000  0.2000000000000000
  0.8000000000000000  0.8000000000000000  0.2000000000000000
  0.9000000000000000  0.8000000000000000  0.2000000000000000
  0.0000000000000000  0.9000000000000000  0.2000000000000000
  0.1000000000000000  0.9000000000000000  0.2000000000000000
  0.2000000000000000  0.9000000000000000  0.2000000000000000
  0.3000000000000000  0.9000000000000000  0.2000000000000000
  0.4000000000000000  0.9000000000000000  0.2000000000000000
  0.5000000000000000  0.9000000000000000  0.2000000000000000
  0.6000000000000001  0.9000000000000000  0.2000000000000000
  0.7000000000000001  0.9000000000000000  0.2000000000000000
  0.8000000000000000  0.9000000000000000  0.2000000000000000
  0.9000000000000000  0.9000000000000000  0.2000000000000000
  0.0000000000000000  0.0000000000000000  0.3000000000000000
  0.1000000000000000  0.0000000000000000  0.3000000000000000
  0.2000000000000000  0.0000000000000000  0.3000000000000000
  0.3000000000000000  0.0000000000000000  0.3000000000000000
  0.4000000000000000  0.0000000000000000  0.3000000000000000
  0.5000000000000000  0.0000000000000000  0.3000000000000000
  0.6000000000000001  0.0000000000000000  0.3000000000000000
  0.7000000000000001  0.0000000000000000  0.3000000000000000
  0.8000000000000000  0.0000000000000000  0.3000000000000000
  0.9000000000000000  0.0000000000000000  0.3000000000000000
  0.0000000000000000  0.1000000000000000  0.3000000000000000
  0.1000000000000000  0.1000000000000000  0.3000000000000000
  0.2000000000000000  0.1000000000000000  0.3000000000000000
  0.3000000000000000  0.1000000000000000  0.3000000000000000
  0.4000000000000000  0.1000000000000000  0.3000000000000000
  0.5000000000000000  0.1000000000000000  0.3000000000000000
  0.6000000000000001  0.1000000000000000  0.3000000000000000
  0.7000000000000001  0.1000000000000000  0.3000000000000000
  0.8000000000000000  0.1000000000000000  0.3000000000000000
  0.9000000000000000  0.1000000000000000  0.3000000000000000
  0.0000000000000000  0.2000000000000000  0.3000000000000000
  0.1000000000000000  0.2000000000000000  0.3000000000000000
  0.2000000000000000  0.2000000000000000  0.3000000000000000
  0.3000000000000000  0.2000000000000000  0.3000000000000000
  0.4000000000000000  0.2000000000000000  0.3000000000000000
  0.5000000000000000  0.2000000000000000  0.3000000000000000
  0.6000000000000001  0.2000000000000000  0.3000000000000000
  0.7000000000000001  0.2000000000000000  0.3000000000000000
  0.8000000000000000  0.2000000000000000  0.3000000000000000
  0.9000000000000000  0.2000000000000000  0.3000000000000000
  0.0000000000000000  0.3000000000000000  0.3000000000000000
  0.1000000000000000  0.3000000000000000  0.3000000000000000
  0.2000000000000000  0.3000000000000000  0.3000000000000000
  0.3000000000000000  0.3000000000000000  0.3000000000000000
  0.4000000000000000  0.3000000000000000  0.3000000000000000
  0.5000000000000000  0.3000000000000000  0.3000000000000000
  0.6000000000000001  0.3000000000000000  0.3000000000000000
  0.7000000000000001  0.3000000000000000  0.3000000000000000
  0.8000000000000000  0.3000000000000000  0.3000000000000000
  0.9000000000000000  0.3000000000000000  0.3000000000000000
  0.0000000000000000  0.4000000000000000  0.3000000000000000
  0.1000000000000000  0.4000000000000000  0.3000000000000000
  0.2000000000000000  0.4000000000000000  0.3000000000000000
  0.3000000000000000  0.4000000000000000  0.3000000000000000
  0.4000000000000000  0.4000000000000000  0.3000000000000000
  0.5000000000000000  0.4000000000000000  0.3000000000000000
  0.6000000000000001  0.4000000000000000  0.3000000000000000
  0.7000000000000001  0.4000000000000000  0.3000000000000000
  0.8000000000000000  0.4000000000000000  0.3000000000000000
  0.9000000000000000  0.4000000000000000  0.3000000000000000
  0.0000000000000000  0.5000000000000000  0.3000000000000000
  0.1000000000000000  0.5000000000000000  0.3000000000000000
  0.2000000000000000  0.5000000000000000  0.3000000000000000
  0.3000000000000000  0.5000000000000000  0.3000000000000000
  0.4000000000000000  0.5000000000000000  0.3000000000000000
  0.5000000000000000  0.5000000000000000  0.3000000000000000
  0.6000000000000001  0.5000000000000000  0.3000000000000000
  0.7000000000000001  0.5000000000000000  0.3000000000000000
  0.8000000000000000  0.5000000000000000  0.3000000000000000
  0.9000000000000000  0.5000000000000000  0.3000000000000000
  0.0000000000000000  0.6000000000000001  0.3000000000000000
  0.1000000000000000  0.6000000000000001  0.3000000000000000
  0.2000000000000000  0.6000000000000001  0.3000000000000000
  0.3000000000000000  0.6000000000000001  0.3000000000000000
  0.4000000000000000  0.6000000000000001  0.3000000000000000
  0.5000000000000000  0.6000000000000001  0.3000000000000000
  0.6000000000000001  0.6000000000000001  0.3000000000000000
  0.7000000000000001  0.6000000000000001  0.3000000000000000
  0.8000000000000000  0.6000000000000001  0.3000000000000000
  0.9000000000000000  0.6000000000000001  0.3000000000000000
  0.0000000000000000  0.7000000000000001  0.3000000000000000
  0.1000000000000000  0.7000000000000001  0.3000000000000000
  0.2000000000000000  0.7000000000000001  0.3000000000000000
  0.3000000000000000  0.7000000000000001  0.3000000000000000
  0.4000000000000000  0.7000000000000001  0.3000000000000000
  0.5000000000000000  0.7000000000000001  0.3000000000000000
  0.6000000000000001  0.7000000000000001  0.3000000000000000
  0.7000000000000001  0.7000000000000001  0.3000000000000000
  0.8000000000000000  0.7000000000000001  0.3000000000000000
  0.9000000000000000  0.7000000000000001  0.3000000000000000
  0.0000000000000000  0.8000000000000000  0.3000000000000000
  0.1000000000000000  0.8000000000000000  0.3000000000000000
  0.2000000000000000  0.8000000000000000  0.3000000000000000
  0.3000000000000000  0.8000000000000000  0.3000000000000000
  0.4000000000000000  0.8000000000000000  0.3000000000000000
  0.5000000000000000  0.8000000000000000  0.3000000000000000
  0.6000000000000001  0.8000000000000000  0.3000000000000000
  0.7000000000000001  0.8000000000000000  0.3000000000000000
  0.8000000000000000  0.8000000000000000  0.3000000000000000
  0.9000000000000000  0.8000000000000000  0.3000000000000000
  0.0000000000000000  0.9000000000000000  0.3000000000000000
  0.1000000000000000  0.9000000000000000  0.3000000000000000
  0.2000000000000000  0.9000000000000000  0.3000000000000000
  0.3000000000000000  0.9000000000000000  0.3000000000000000
  0.4000000000000000  0.9000000000000000  0.3000000000000000
  0.5000000000000000  0.9000000000000000  0.3000000000000000
  0.6000000000000001  0.9000000000000000  0.3000000000000000
  0.7000000000000001  0.9000000000000000  0.3000000000000000
  0.8000000000000000  0.9000000000000000  0.3000000000000000
  0.9000000000000000  0.9000000000000000  0.3000000000000000
  0.0000000000000000  0.0000000000000000  0.4000000000000000
  0.1000000000000000  0.0000000000000000  0.4000000000000000
  0.2000000000000000  0.0000000000000000  0.4000000000000000
  0.3000000000000000  0.0000000000000000  0.4000000000000000
  0.4000000000000000  0.0000000000000000  0.4000000000000000
  0.5000000000000000  0.0000000000000000  0.4000000000000000
  0.6000000000000001  0.0000000000000000  0.4000000000000000
  0.7000000000000001  0.0000000000000000  0.4000000000000000
  0.8000000000000000  0.0000000000000000  0.4000000000000000
  0.9000000000000000  0.0000000000000000  0.4000000000000000
  0.0000000000000000  0.1000000000000000  0.4000000000000000
  0.1000000000000000  0.1000000000000000  0.4000000000000000
  0.2000000000000000  0.1000000000000000  0.4000000000000000
  0.3000000000000000  0.1000000000000000  0.4000000000000000
  0.4000000000000000  0.1000000000000000  0.4000000000000000
  0.5000000000000000  0.1000000000000000  0.4000000000000000
  0.6000000000000001  0.1000000000000000  0.4000000000000000
  0.7000000000000001  0.1000000000000000  0.4000000000000000
  0.8000000000000000  0.1000000000000000  0.4000000000000000
  0.9000000000000000  0.1000000000000000  0.4000000000000000
  0.0000000000000000  0.2000000000000000  0.4000000000000000
  0.1000000000000000  0.2000000000000000  0.4000000000000000
  0.2000000000000000  0.2000000000000000  0.4000000000000000
  0.3000000000000000  0.2000000000000000  0.4000000000000000
  0.4000000000000000  0.2000000000000000  0.4000000000000000
  0.5000000000000000  0.2000000000000000  0.4000000000000000
  0.6000000000000001  0.2000000000000000  0.4000000000000000
  0.7000000000000001  0.2000000000000000  0.4000000000000000
  0.8000000000000000  0.2000000000000000  0.4000000000000000
  0.9000000000000000  0.2000000000000000  0.4000000000000000
  0.0000000000000000  0.3000000000000000  0.4000000000000000
  0.1000000000000000  0.3000000000000000  0.4000000000000000
  0.2000000000000000  0.3000000000000000  0.4000000000000000
  0.3000000000000000  0.3000000000000000  0.4000000000000000
  0.4000000000000000  0.3000000000000000  0.4000000000000000
  0.5000000000000000  0.3000000000000000  0.4000000000000000
  0.6000000000000001  0.3000000000000000  0.4000000000000000
  0.7000000000000001  0.3000000000000000  0.4000000000000000
  0.8000000000000000  0.3000000000000000  0.4000000000000000
  0.9000000000000000  0.3000000000000000  0.4000000000000000
  0.0000000000000000  0.4000000000000000  0.4000000000000000
  0.1000000000000000  0.4000000000000000  0.4000000000000000
  0.2000000000000000  0.4000000000000000  0.4000000000000000
  0.3000000000000000  0.4000000000000000  0.4000000000000000
  0.4000000000000000  0.4000000000000000  0.4000000000000000
  0.5000000000000000  0.4000000000000000  0.4000000000000000
  0.6000000000000001  0.4000000000000000  0.4000000000000000
  0.7000000000000001  0.4000000000000000  0.4000000000000000
  0.8000000000000000  0.4000000000000000  0.4000000000000000
  0.9000000000000000  0.4000000000000000  0.4000000000000000
  0.0000000000000000  0.5000000000000000  0.4000000000000000
  0.1000000000000000  0.5000000000000000  0.4000000000000000
  0.2000000000000000  0.5000000000000000  0.4000000000000000
  0.3000000000000000  0.5000000000000000  0.4000000000000000
  0.4000000000000000  0.5000000000000000  0.4000000000000000
  0.5000000000000000  0.5000000000000000  0.4000000000000000
  0.6000000000000001  0.5000000000000000  0.4000000000000000
  0.7000000000000001  0.5000000000000000  0.4000000000000000
  0.8000000000000000  0.5000000000000000  0.4000000000000000
  0.9000000000000000  0.5000000000000000  0.4000000000000000
  0.0000000000000000  0.6000000000000001  0.4000000000000000
  0.1000000000000000  0.6000000000000001  0.4000000000000000
  0.2000000000000000  0.6000000000000001  0.4000000000000000
  0.3000000000000000  0.6000000000000001  0.4000000000000000
  0.4000000000000000  0.6000000000000001  0.4000000000000000
  0.5000000000000000  0.6000000000000001  0.4000000000000000
  0.6000000000000001  0.6000000000000001  0.4000000000000000
  0.7000000000000001  0.6000000000000001  0.4000000000000000
  0.8000000000000000  0.6000000000000001  0.4000000000000000
  0.9000000000000000  0.6000000000000001  0.4000000000000000
  0.0000000000000000  0.7000000000000001  0.4000000000000000
  0.1000000000000000  0.7000000000000001  0.4000000000000000
  0.2000000000000000  0.7000000000000001  0.4000000000000000
  0.3000000000000000  0.7000000000000001  0.4000000000000000
  0.4000000000000000  0.7000000000000001  0.4000000000000000
  0.5000000000000000  0.7000000000000001  0.4000000000000000
  0.6000000000000001  0.7000000000000001  0.4000000000000000
  0.7000000000000001  0.7000000000000001  0.4000000000000000
  0.8000000000000000  0.7000000000000001  0.4000000000000000
  0.9000000000000000  0.7000000000000001  0.4000000000000000
  0.0000000000000000  0.8000000000000000  0.4000000000000000
  0.1000000000000000  0.8000000000000000  0.4000000000000000
  0.2000000000000000  0.8000000000000000  0.4000000000000000
  0.3000000000000000  0.8000000000000000  0.4000000000000000
  0.4000000000000000  0.8000000000000000  0.4000000000000000
  0.5000000000000000  0.8000000000000000  0.4000000000000000
  0.6000000000000001  0.8000000000000000  0.4000000000000000